Score: 24
1 0 1 2 7 8 9 10 15 16 17 18 23 24 25 26 31 32 33 34 39 40 41 42 47 48 49 50 55 56 57 58 63 64 65 66 71 72 73 74 79 80 81 82 87 88 89 90 95 96 97 98 103 104 105 106 111 112 113 114 119 120 121 122 127 128 129 130 135 136 137 138 143 144 145 146 151 152 153 154 159 160 161 162 167 168 169 170 175 176 177 178 183 184 185 186 191 192 193 194 199 200 201 202 207 208 209 210 215 216 217 218 223 224 225 226 231 232 233 234 239 240 241 242 247 248 249 250
1 0 1 2 15 16 17 18 31 32 33 34 47 48 49 50 63 64 65 66 79 80 81 82 95 96 97 98 111 112 113 114 127 128 129 130 143 144 145 146 159 160 161 162 175 176 177 178 191 192 193 194 207 208 209 210 223 224 225 226 239 240 241 242 255 256 257 258 271 272 273 274 287 288 289 290 303 304 305 306 319 320 321 322 335 336 337 338 351 352 353 354 367 368 369 370 383 384 385 386 399 400 401 402 415 416 417 418 431 432 433 434 447 448 449 450 463 464 465 466 479 480 481 482 495 496 497 498
1 0 1 2 3 4 5 6 15 16 17 18 19 20 21 22 31 32 33 34 35 36 37 38 47 48 49 50 51 52 53 54 63 64 65 66 67 68 69 70 79 80 81 82 83 84 85 86 95 96 97 98 99 100 101 102 111 112 113 114 115 116 117 118 511 512 513 514 515 516 517 518 527 528 529 530 531 532 533 534 543 544 545 546 547 548 549 550 559 560 561 562 563 564 565 566 575 576 577 578 579 580 581 582 591 592 593 594 595 596 597 598 607 608 609 610 611 612 613 614 623 624 625 626 627 628 629 630
1 1 3 5 7 9 11 13 15 17 19 21 23 25 27 29 31 33 35 37 39 41 43 45 47 49 51 53 55 57 59 61 63 65 67 69 71 73 75 77 79 81 83 85 87 89 91 93 95 97 99 101 103 105 107 109 111 113 115 117 119 121 123 125 511 513 515 517 519 521 523 525 527 529 531 533 535 537 539 541 543 545 547 549 551 553 555 557 559 561 563 565 567 569 571 573 575 577 579 581 583 585 587 589 591 593 595 597 599 601 603 605 607 609 611 613 615 617 619 621 623 625 627 629 631 633 635 637
1 1 3 5 15 17 19 21 31 33 35 37 47 49 51 53 63 65 67 69 79 81 83 85 95 97 99 101 111 113 115 117 127 129 131 133 143 145 147 149 159 161 163 165 175 177 179 181 191 193 195 197 207 209 211 213 223 225 227 229 239 241 243 245 511 513 515 517 527 529 531 533 543 545 547 549 559 561 563 565 575 577 579 581 591 593 595 597 607 609 611 613 623 625 627 629 639 641 643 645 655 657 659 661 671 673 675 677 687 689 691 693 703 705 707 709 719 721 723 725 735 737 739 741 751 753 755 757
1 1 3 5 15 17 19 21 31 33 35 37 47 49 51 53 63 65 67 69 79 81 83 85 95 97 99 101 111 113 115 117 255 257 259 261 271 273 275 277 287 289 291 293 303 305 307 309 319 321 323 325 335 337 339 341 351 353 355 357 367 369 371 373 511 513 515 517 527 529 531 533 543 545 547 549 559 561 563 565 575 577 579 581 591 593 595 597 607 609 611 613 623 625 627 629 767 769 771 773 783 785 787 789 799 801 803 805 815 817 819 821 831 833 835 837 847 849 851 853 863 865 867 869 879 881 883 885
1 0 1 2 3 4 5 6 7 8 9 10 11 12 13 14 127 128 129 130 131 132 133 134 135 136 137 138 139 140 141 142 255 256 257 258 259 260 261 262 263 264 265 266 267 268 269 270 383 384 385 386 387 388 389 390 391 392 393 394 395 396 397 398 511 512 513 514 515 516 517 518 519 520 521 522 523 524 525 526 639 640 641 642 643 644 645 646 647 648 649 650 651 652 653 654 767 768 769 770 771 772 773 774 775 776 777 778 779 780 781 782 895 896 897 898 899 900 901 902 903 904 905 906 907 908 909 910
1 0 3 4 7 8 11 12 31 32 35 36 39 40 43 44 127 128 131 132 135 136 139 140 159 160 163 164 167 168 171 172 255 256 259 260 263 264 267 268 287 288 291 292 295 296 299 300 383 384 387 388 391 392 395 396 415 416 419 420 423 424 427 428 511 512 515 516 519 520 523 524 543 544 547 548 551 552 555 556 639 640 643 644 647 648 651 652 671 672 675 676 679 680 683 684 767 768 771 772 775 776 779 780 799 800 803 804 807 808 811 812 895 896 899 900 903 904 907 908 927 928 931 932 935 936 939 940
1 0 3 4 7 8 11 12 63 64 67 68 71 72 75 76 127 128 131 132 135 136 139 140 191 192 195 196 199 200 203 204 255 256 259 260 263 264 267 268 319 320 323 324 327 328 331 332 383 384 387 388 391 392 395 396 447 448 451 452 455 456 459 460 511 512 515 516 519 520 523 524 575 576 579 580 583 584 587 588 639 640 643 644 647 648 651 652 703 704 707 708 711 712 715 716 767 768 771 772 775 776 779 780 831 832 835 836 839 840 843 844 895 896 899 900 903 904 907 908 959 960 963 964 967 968 971 972
1 0 1 2 3 4 5 6 7 8 9 10 11 12 13 14 31 32 33 34 35 36 37 38 39 40 41 42 43 44 45 46 63 64 65 66 67 68 69 70 71 72 73 74 75 76 77 78 95 96 97 98 99 100 101 102 103 104 105 106 107 108 109 110 911 912 913 914 915 916 917 918 919 920 921 922 923 924 925 926 943 944 945 946 947 948 949 950 951 952 953 954 955 956 957 958 975 976 977 978 979 980 981 982 983 984 985 986 987 988 989 990 1007 1008 1009 1010 1011 1012 1013 1014 1015 1016 1017 1018 1019 1020 1021 1022
1 0 1 2 3 4 5 6 31 32 33 34 35 36 37 38 63 64 65 66 67 68 69 70 95 96 97 98 99 100 101 102 255 256 257 258 259 260 261 262 287 288 289 290 291 292 293 294 319 320 321 322 323 324 325 326 351 352 353 354 355 356 357 358 663 664 665 666 667 668 669 670 695 696 697 698 699 700 701 702 727 728 729 730 731 732 733 734 759 760 761 762 763 764 765 766 919 920 921 922 923 924 925 926 951 952 953 954 955 956 957 958 983 984 985 986 987 988 989 990 1015 1016 1017 1018 1019 1020 1021 1022
1 1 3 5 7 9 11 13 15 17 19 21 23 25 27 29 127 129 131 133 135 137 139 141 143 145 147 149 151 153 155 157 255 257 259 261 263 265 267 269 271 273 275 277 279 281 283 285 383 385 387 389 391 393 395 397 399 401 403 405 407 409 411 413 608 610 612 614 616 618 620 622 624 626 628 630 632 634 636 638 736 738 740 742 744 746 748 750 752 754 756 758 760 762 764 766 864 866 868 870 872 874 876 878 880 882 884 886 888 890 892 894 992 994 996 998 1000 1002 1004 1006 1008 1010 1012 1014 1016 1018 1020 1022
1 3 7 11 15 19 23 27 31 35 39 43 47 51 55 59 127 131 135 139 143 147 151 155 159 163 167 171 175 179 183 187 255 259 263 267 271 275 279 283 287 291 295 299 303 307 311 315 383 387 391 395 399 403 407 411 415 419 423 427 431 435 439 443 578 582 586 590 594 598 602 606 610 614 618 622 626 630 634 638 706 710 714 718 722 726 730 734 738 742 746 750 754 758 762 766 834 838 842 846 850 854 858 862 866 870 874 878 882 886 890 894 962 966 970 974 978 982 986 990 994 998 1002 1006 1010 1014 1018 1022
1 3 7 11 15 19 23 27 63 67 71 75 79 83 87 91 127 131 135 139 143 147 151 155 191 195 199 203 207 211 215 219 255 259 263 267 271 275 279 283 319 323 327 331 335 339 343 347 383 387 391 395 399 403 407 411 447 451 455 459 463 467 471 475 546 550 554 558 562 566 570 574 610 614 618 622 626 630 634 638 674 678 682 686 690 694 698 702 738 742 746 750 754 758 762 766 802 806 810 814 818 822 826 830 866 870 874 878 882 886 890 894 930 934 938 942 946 950 954 958 994 998 1002 1006 1010 1014 1018 1022
1 1 3 5 15 17 19 21 31 33 35 37 47 49 51 53 63 65 67 69 79 81 83 85 95 97 99 101 111 113 115 117 392 394 396 398 408 410 412 414 424 426 428 430 440 442 444 446 456 458 460 462 472 474 476 478 488 490 492 494 504 506 508 510 511 513 515 517 527 529 531 533 543 545 547 549 559 561 563 565 575 577 579 581 591 593 595 597 607 609 611 613 623 625 627 629 904 906 908 910 920 922 924 926 936 938 940 942 952 954 956 958 968 970 972 974 984 986 988 990 1000 1002 1004 1006 1016 1018 1020 1022
1 0 1 2 3 4 5 6 15 16 17 18 19 20 21 22 127 128 129 130 131 132 133 134 143 144 145 146 147 148 149 150 359 360 361 362 363 364 365 366 375 376 377 378 379 380 381 382 487 488 489 490 491 492 493 494 503 504 505 506 507 508 509 510 511 512 513 514 515 516 517 518 527 528 529 530 531 532 533 534 639 640 641 642 643 644 645 646 655 656 657 658 659 660 661 662 871 872 873 874 875 876 877 878 887 888 889 890 891 892 893 894 999 1000 1001 1002 1003 1004 1005 1006 1015 1016 1017 1018 1019 1020 1021 1022
1 0 3 4 15 16 19 20 31 32 35 36 47 48 51 52 127 128 131 132 143 144 147 148 159 160 163 164 175 176 179 180 329 330 333 334 345 346 349 350 361 362 365 366 377 378 381 382 457 458 461 462 473 474 477 478 489 490 493 494 505 506 509 510 511 512 515 516 527 528 531 532 543 544 547 548 559 560 563 564 639 640 643 644 655 656 659 660 671 672 675 676 687 688 691 692 841 842 845 846 857 858 861 862 873 874 877 878 889 890 893 894 969 970 973 974 985 986 989 990 1001 1002 1005 1006 1017 1018 1021 1022
1 0 3 4 15 16 19 20 63 64 67 68 79 80 83 84 127 128 131 132 143 144 147 148 191 192 195 196 207 208 211 212 297 298 301 302 313 314 317 318 361 362 365 366 377 378 381 382 425 426 429 430 441 442 445 446 489 490 493 494 505 506 509 510 511 512 515 516 527 528 531 532 575 576 579 580 591 592 595 596 639 640 643 644 655 656 659 660 703 704 707 708 719 720 723 724 809 810 813 814 825 826 829 830 873 874 877 878 889 890 893 894 937 938 941 942 953 954 957 958 1001 1002 1005 1006 1017 1018 1021 1022
1 0 1 2 31 32 33 34 63 64 65 66 95 96 97 98 127 128 129 130 159 160 161 162 191 192 193 194 223 224 225 226 283 284 285 286 315 316 317 318 347 348 349 350 379 380 381 382 411 412 413 414 443 444 445 446 475 476 477 478 507 508 509 510 511 512 513 514 543 544 545 546 575 576 577 578 607 608 609 610 639 640 641 642 671 672 673 674 703 704 705 706 735 736 737 738 795 796 797 798 827 828 829 830 859 860 861 862 891 892 893 894 923 924 925 926 955 956 957 958 987 988 989 990 1019 1020 1021 1022
1 1 7 9 31 33 39 41 63 65 71 73 95 97 103 105 127 129 135 137 159 161 167 169 191 193 199 201 223 225 231 233 276 278 284 286 308 310 316 318 340 342 348 350 372 374 380 382 404 406 412 414 436 438 444 446 468 470 476 478 500 502 508 510 511 513 519 521 543 545 551 553 575 577 583 585 607 609 615 617 639 641 647 649 671 673 679 681 703 705 711 713 735 737 743 745 788 790 796 798 820 822 828 830 852 854 860 862 884 886 892 894 916 918 924 926 948 950 956 958 980 982 988 990 1012 1014 1020 1022
1 0 1 2 7 8 9 10 15 16 17 18 23 24 25 26 227 228 229 230 235 236 237 238 243 244 245 246 251 252 253 254 255 256 257 258 263 264 265 266 271 272 273 274 279 280 281 282 483 484 485 486 491 492 493 494 499 500 501 502 507 508 509 510 511 512 513 514 519 520 521 522 527 528 529 530 535 536 537 538 739 740 741 742 747 748 749 750 755 756 757 758 763 764 765 766 767 768 769 770 775 776 777 778 783 784 785 786 791 792 793 794 995 996 997 998 1003 1004 1005 1006 1011 1012 1013 1014 1019 1020 1021 1022
1 0 7 8 15 16 23 24 31 32 39 40 47 48 55 56 197 198 205 206 213 214 221 222 229 230 237 238 245 246 253 254 255 256 263 264 271 272 279 280 287 288 295 296 303 304 311 312 453 454 461 462 469 470 477 478 485 486 493 494 501 502 509 510 511 512 519 520 527 528 535 536 543 544 551 552 559 560 567 568 709 710 717 718 725 726 733 734 741 742 749 750 757 758 765 766 767 768 775 776 783 784 791 792 799 800 807 808 815 816 823 824 965 966 973 974 981 982 989 990 997 998 1005 1006 1013 1014 1021 1022
1 0 7 8 15 16 23 24 63 64 71 72 79 80 87 88 165 166 173 174 181 182 189 190 229 230 237 238 245 246 253 254 255 256 263 264 271 272 279 280 319 320 327 328 335 336 343 344 421 422 429 430 437 438 445 446 485 486 493 494 501 502 509 510 511 512 519 520 527 528 535 536 575 576 583 584 591 592 599 600 677 678 685 686 693 694 701 702 741 742 749 750 757 758 765 766 767 768 775 776 783 784 791 792 831 832 839 840 847 848 855 856 933 934 941 942 949 950 957 958 997 998 1005 1006 1013 1014 1021 1022
1 1 28 30 31 33 60 62 63 65 92 94 95 97 124 126 127 129 156 158 159 161 188 190 191 193 220 222 223 225 252 254 255 257 284 286 287 289 316 318 319 321 348 350 351 353 380 382 383 385 412 414 415 417 444 446 447 449 476 478 479 481 508 510 511 513 540 542 543 545 572 574 575 577 604 606 607 609 636 638 639 641 668 670 671 673 700 702 703 705 732 734 735 737 764 766 767 769 796 798 799 801 828 830 831 833 860 862 863 865 892 894 895 897 924 926 927 929 956 958 959 961 988 990 991 993 1020 1022
